
Gurobi 11.0.1 (win64) logging started Thu Mar 14 08:01:56 2024

Set parameter LogFile to value "C:\Projetos\Job_Rotation_Algorithms\Outputs\GurobiLogs\gurobi_log-output-3_ros-c19-BorbaRittModel-NoExtraConstraint-2.log"
Gurobi Optimizer version 11.0.1 build v11.0.1rc0 (win64 - Windows 10.0 (19045.2))

CPU model: 11th Gen Intel(R) Core(TM) i7-1165G7 @ 2.80GHz, instruction set [SSE2|AVX|AVX2|AVX512]
Thread count: 4 physical cores, 8 logical processors, using up to 1 threads


Gurobi 11.0.1 (win64) logging started Fri Mar 15 00:39:23 2024

Set parameter LogFile to value "C:\Projetos\Job_Rotation_Algorithms\Outputs\GurobiLogs\gurobi_log-output-3_ros-c19-BorbaRittModel-NoExtraConstraint-2.log"
Gurobi Optimizer version 11.0.1 build v11.0.1rc0 (win64 - Windows 10.0 (19045.2))

CPU model: 11th Gen Intel(R) Core(TM) i7-1165G7 @ 2.80GHz, instruction set [SSE2|AVX|AVX2|AVX512]
Thread count: 4 physical cores, 8 logical processors, using up to 1 threads


Gurobi 11.0.1 (win64) logging started Sat Mar 16 12:25:48 2024

Set parameter LogFile to value "C:\Projetos\Job_Rotation_Algorithms\Outputs\GurobiLogs\gurobi_log-output-3_ros-c19-BorbaRittModel-NoExtraConstraint-2.log"
Gurobi Optimizer version 11.0.1 build v11.0.1rc0 (win64 - Windows 10.0 (19045.2))

CPU model: 11th Gen Intel(R) Core(TM) i7-1165G7 @ 2.80GHz, instruction set [SSE2|AVX|AVX2|AVX512]
Thread count: 4 physical cores, 8 logical processors, using up to 1 threads


Gurobi 11.0.1 (win64) logging started Sat Mar 16 22:28:40 2024

Set parameter LogFile to value "C:\Projetos\Job_Rotation_Algorithms\Outputs\GurobiLogs\gurobi_log-output-3_ros-c19-BorbaRittModel-NoExtraConstraint-2.log"
Gurobi Optimizer version 11.0.1 build v11.0.1rc0 (win64 - Windows 10.0 (19045.2))

CPU model: 11th Gen Intel(R) Core(TM) i7-1165G7 @ 2.80GHz, instruction set [SSE2|AVX|AVX2|AVX512]
Thread count: 4 physical cores, 8 logical processors, using up to 1 threads

WLS license 901039 - registered to Bitka Analytics
Optimize a model with 813 rows, 296 columns and 2620 nonzeros
Model fingerprint: 0xf4e65a34
Variable types: 2 continuous, 294 integer (294 binary)
Coefficient statistics:
  Matrix range     [1e+00, 1e+01]
  Objective range  [1e+00, 1e+00]
  Bounds range     [1e+00, 4e+01]
  RHS range        [1e+00, 4e+01]
Presolve removed 5 rows and 5 columns
Presolve time: 0.00s
Presolved: 808 rows, 291 columns, 2610 nonzeros
Variable types: 0 continuous, 291 integer (290 binary)

Root relaxation: objective 5.000000e+01, 484 iterations, 0.02 seconds (0.01 work units)

    Nodes    |    Current Node    |     Objective Bounds      |     Work
 Expl Unexpl |  Obj  Depth IntInf | Incumbent    BestBd   Gap | It/Node Time

     0     0   50.00000    0  126          -   50.00000      -     -    0s
     0     0   50.00000    0  116          -   50.00000      -     -    0s
     0     0   50.00000    0  108          -   50.00000      -     -    0s
     0     0   50.00000    0  101          -   50.00000      -     -    0s
     0     0   50.00000    0  111          -   50.00000      -     -    0s
     0     0   50.00000    0  111          -   50.00000      -     -    0s
     0     0   50.00000    0  108          -   50.00000      -     -    0s
     0     0   50.00000    0  110          -   50.00000      -     -    0s
     0     0   50.00000    0   92          -   50.00000      -     -    0s
     0     0   50.00000    0   91          -   50.00000      -     -    0s
     0     0   50.00000    0   95          -   50.00000      -     -    0s
     0     0   50.00000    0  101          -   50.00000      -     -    0s
     0     0   50.00000    0   92          -   50.00000      -     -    0s
     0     0   50.00000    0  110          -   50.00000      -     -    0s
     0     0   50.00000    0  110          -   50.00000      -     -    0s
     0     2   50.00000    0  102          -   50.00000      -     -    0s
  1517   398   45.08201   27  123          -   50.00000      -  55.6    5s
  2835   325 infeasible   27               -   50.00000      -  90.7   10s
* 3374   317              34      35.0000000   50.00000  42.9%  98.7   12s
  4241   294   50.00000   25  148   35.00000   50.00000  42.9%   104   15s
  5240   275   46.20390   29   82   35.00000   50.00000  42.9%   108   20s
  5969   179   49.00000   25  146   35.00000   49.00000  40.0%   108   25s

Cutting planes:
  Flow cover: 2
  Zero half: 2
  RLT: 3
  BQP: 1

Explored 6854 nodes (720438 simplex iterations) in 26.16 seconds (26.86 work units)
Thread count was 1 (of 8 available processors)

Solution count 1: 35 

Optimal solution found (tolerance 1.00e-03)
Best objective 3.500000000000e+01, best bound 3.500000000000e+01, gap 0.0000%
